% File represents an instance of a Composite Structure problem to be solved by a CP framework
% Created on 2025-03-26 10:42:15.514
T = 50;
n = 36;
m = 60;
edges = [(1, 2),
(7, 8),
(13, 14),
(19, 20),
(25, 26),
(31, 32),
(2, 3),
(8, 9),
(14, 15),
(20, 21),
(26, 27),
(32, 33),
(4, 3),
(9, 10),
(16, 15),
(22, 21),
(28, 27),
(34, 33),
(5, 4),
(11, 10),
(16, 17),
(23, 22),
(29, 28),
(35, 34),
(5, 6),
(12, 11),
(18, 17),
(23, 24),
(29, 30),
(36, 35),
(7, 1),
(7, 13),
(13, 19),
(19, 25),
(25, 31),
(8, 2),
(8, 14),
(14, 20),
(20, 26),
(26, 32),
(9, 3),
(9, 15),
(15, 21),
(21, 27),
(27, 33),
(4, 10),
(16, 10),
(16, 22),
(22, 28),
(28, 34),
(5, 11),
(11, 17),
(23, 17),
(23, 29),
(29, 35),
(12, 6),
(12, 18),
(18, 24),
(24, 30),
(36, 30)];
counts = [|14, 8, 14, 12,
|14, 4, 14, 10,
|14, 2, 14, 6,
|14, 2, 14, 8,
|14, 2, 14, 10,
|14, 2, 14, 8,
|14, 10, 14, 12,
|14, 6, 14, 10,
|14, 4, 14, 6,
|14, 2, 14, 2,
|14, 2, 14, 8,
|16, 2, 16, 10,
|12, 10, 12, 10,
|12, 6, 12, 8,
|12, 4, 12, 4,
|14, 4, 14, 4,
|14, 2, 14, 4,
|14, 2, 14, 8,
|10, 10, 10, 8,
|10, 6, 10, 6,
|10, 4, 10, 2,
|12, 4, 12, 4,
|14, 4, 14, 6,
|14, 2, 14, 6,
|8, 10, 8, 8,
|8, 6, 8, 6,
|8, 4, 8, 2,
|10, 4, 10, 2,
|12, 4, 12, 4,
|12, 2, 12, 4,
|8, 10, 8, 4,
|8, 6, 8, 4,
|8, 2, 8, 2,
|10, 2, 10, 2,
|12, 2, 12, 4,
|12, 2, 12, 10|];
